c " random instance " 
p edges 200 4182
e 1 10
e 1 11
e 1 25
e 1 26
e 1 30
e 1 31
e 1 38
e 1 39
e 1 40
e 1 42
e 1 47
e 1 48
e 1 52
e 1 54
e 1 63
e 1 65
e 1 66
e 1 71
e 1 74
e 1 84
e 1 87
e 1 92
e 1 97
e 1 113
e 1 117
e 1 121
e 1 122
e 1 133
e 1 135
e 1 143
e 1 162
e 1 165
e 1 169
e 1 171
e 1 188
e 1 192
e 1 197
e 2 3
e 2 14
e 2 16
e 2 18
e 2 23
e 2 25
e 2 29
e 2 31
e 2 48
e 2 62
e 2 64
e 2 67
e 2 70
e 2 77
e 2 78
e 2 84
e 2 92
e 2 99
e 2 103
e 2 105
e 2 117
e 2 125
e 2 129
e 2 132
e 2 138
e 2 141
e 2 143
e 2 146
e 2 147
e 2 157
e 2 161
e 2 165
e 2 166
e 2 167
e 2 171
e 2 176
e 2 180
e 2 184
e 2 192
e 2 193
e 2 197
e 2 199
e 3 4
e 3 7
e 3 11
e 3 23
e 3 34
e 3 42
e 3 46
e 3 47
e 3 50
e 3 53
e 3 54
e 3 61
e 3 62
e 3 63
e 3 66
e 3 67
e 3 73
e 3 75
e 3 79
e 3 80
e 3 87
e 3 88
e 3 95
e 3 105
e 3 109
e 3 110
e 3 115
e 3 117
e 3 123
e 3 125
e 3 126
e 3 127
e 3 129
e 3 130
e 3 141
e 3 145
e 3 148
e 3 153
e 3 154
e 3 157
e 3 162
e 3 165
e 3 166
e 3 170
e 3 174
e 3 177
e 3 180
e 3 181
e 3 188
e 3 191
e 3 193
e 3 199
e 4 5
e 4 11
e 4 17
e 4 23
e 4 25
e 4 27
e 4 28
e 4 29
e 4 36
e 4 37
e 4 42
e 4 45
e 4 49
e 4 51
e 4 60
e 4 63
e 4 67
e 4 77
e 4 79
e 4 82
e 4 100
e 4 111
e 4 114
e 4 121
e 4 128
e 4 133
e 4 148
e 4 152
e 4 158
e 4 168
e 4 174
e 4 183
e 4 185
e 4 191
e 4 193
e 4 196
e 4 197
e 4 198
e 4 199
e 5 8
e 5 12
e 5 13
e 5 24
e 5 25
e 5 30
e 5 31
e 5 37
e 5 38
e 5 46
e 5 55
e 5 60
e 5 61
e 5 63
e 5 66
e 5 70
e 5 81
e 5 86
e 5 87
e 5 88
e 5 93
e 5 96
e 5 97
e 5 98
e 5 99
e 5 105
e 5 111
e 5 118
e 5 126
e 5 127
e 5 130
e 5 132
e 5 140
e 5 150
e 5 156
e 5 161
e 5 163
e 5 166
e 5 171
e 5 175
e 5 180
e 5 190
e 5 193
e 5 194
e 5 195
e 6 8
e 6 14
e 6 19
e 6 31
e 6 37
e 6 39
e 6 48
e 6 54
e 6 72
e 6 75
e 6 79
e 6 84
e 6 89
e 6 98
e 6 100
e 6 101
e 6 105
e 6 106
e 6 108
e 6 114
e 6 123
e 6 130
e 6 135
e 6 138
e 6 141
e 6 152
e 6 156
e 6 158
e 6 164
e 6 172
e 6 173
e 6 174
e 6 178
e 6 180
e 6 183
e 6 184
e 6 185
e 6 191
e 6 192
e 6 194
e 6 200
e 7 8
e 7 10
e 7 12
e 7 13
e 7 14
e 7 16
e 7 18
e 7 20
e 7 28
e 7 45
e 7 47
e 7 49
e 7 52
e 7 53
e 7 54
e 7 58
e 7 61
e 7 63
e 7 65
e 7 66
e 7 74
e 7 77
e 7 83
e 7 85
e 7 90
e 7 91
e 7 93
e 7 94
e 7 95
e 7 102
e 7 104
e 7 107
e 7 113
e 7 114
e 7 116
e 7 118
e 7 121
e 7 122
e 7 124
e 7 129
e 7 141
e 7 152
e 7 153
e 7 156
e 7 157
e 7 158
e 7 159
e 7 160
e 7 167
e 7 184
e 7 185
e 7 189
e 7 194
e 7 196
e 7 199
e 8 20
e 8 30
e 8 31
e 8 37
e 8 44
e 8 49
e 8 55
e 8 60
e 8 68
e 8 69
e 8 80
e 8 84
e 8 86
e 8 95
e 8 97
e 8 104
e 8 112
e 8 114
e 8 117
e 8 118
e 8 119
e 8 120
e 8 123
e 8 138
e 8 140
e 8 141
e 8 150
e 8 159
e 8 160
e 8 168
e 8 171
e 8 196
e 8 197
e 8 198
e 9 13
e 9 14
e 9 18
e 9 22
e 9 35
e 9 36
e 9 39
e 9 43
e 9 56
e 9 69
e 9 76
e 9 90
e 9 92
e 9 93
e 9 97
e 9 99
e 9 105
e 9 106
e 9 107
e 9 124
e 9 136
e 9 137
e 9 144
e 9 152
e 9 154
e 9 155
e 9 165
e 9 175
e 9 177
e 9 178
e 9 179
e 9 185
e 9 188
e 9 191
e 9 199
e 10 11
e 10 16
e 10 19
e 10 24
e 10 29
e 10 30
e 10 31
e 10 34
e 10 35
e 10 39
e 10 40
e 10 42
e 10 45
e 10 47
e 10 49
e 10 51
e 10 56
e 10 64
e 10 69
e 10 71
e 10 72
e 10 73
e 10 80
e 10 81
e 10 84
e 10 91
e 10 92
e 10 98
e 10 105
e 10 108
e 10 113
e 10 115
e 10 126
e 10 134
e 10 136
e 10 145
e 10 146
e 10 149
e 10 152
e 10 155
e 10 161
e 10 167
e 10 174
e 10 180
e 10 188
e 10 192
e 10 195
e 10 200
e 11 12
e 11 28
e 11 30
e 11 42
e 11 44
e 11 49
e 11 53
e 11 55
e 11 56
e 11 61
e 11 66
e 11 68
e 11 82
e 11 85
e 11 86
e 11 89
e 11 92
e 11 93
e 11 97
e 11 102
e 11 103
e 11 112
e 11 117
e 11 123
e 11 124
e 11 137
e 11 149
e 11 157
e 11 163
e 11 164
e 11 169
e 11 180
e 11 186
e 11 197
e 11 200
e 12 17
e 12 26
e 12 27
e 12 28
e 12 33
e 12 36
e 12 37
e 12 42
e 12 45
e 12 47
e 12 49
e 12 50
e 12 52
e 12 61
e 12 65
e 12 66
e 12 73
e 12 74
e 12 78
e 12 96
e 12 100
e 12 103
e 12 111
e 12 113
e 12 119
e 12 120
e 12 121
e 12 127
e 12 135
e 12 138
e 12 151
e 12 157
e 12 166
e 12 168
e 12 172
e 12 180
e 12 188
e 12 191
e 12 192
e 12 193
e 12 194
e 13 17
e 13 18
e 13 21
e 13 24
e 13 28
e 13 30
e 13 31
e 13 33
e 13 34
e 13 39
e 13 42
e 13 44
e 13 46
e 13 48
e 13 53
e 13 55
e 13 56
e 13 67
e 13 70
e 13 75
e 13 79
e 13 82
e 13 85
e 13 89
e 13 90
e 13 93
e 13 104
e 13 107
e 13 109
e 13 112
e 13 114
e 13 119
e 13 120
e 13 123
e 13 128
e 13 133
e 13 143
e 13 144
e 13 156
e 13 157
e 13 158
e 13 160
e 13 164
e 13 179
e 13 181
e 13 186
e 13 195
e 13 197
e 13 198
e 13 200
e 14 16
e 14 25
e 14 31
e 14 37
e 14 40
e 14 44
e 14 50
e 14 58
e 14 63
e 14 71
e 14 72
e 14 73
e 14 83
e 14 87
e 14 89
e 14 95
e 14 97
e 14 98
e 14 101
e 14 106
e 14 111
e 14 117
e 14 118
e 14 125
e 14 128
e 14 129
e 14 138
e 14 142
e 14 143
e 14 147
e 14 148
e 14 150
e 14 157
e 14 159
e 14 171
e 14 178
e 14 186
e 14 190
e 14 192
e 14 195
e 14 196
e 14 199
e 15 16
e 15 18
e 15 21
e 15 23
e 15 25
e 15 32
e 15 39
e 15 45
e 15 47
e 15 50
e 15 54
e 15 59
e 15 72
e 15 80
e 15 84
e 15 91
e 15 93
e 15 94
e 15 95
e 15 101
e 15 104
e 15 105
e 15 109
e 15 116
e 15 122
e 15 123
e 15 135
e 15 143
e 15 151
e 15 152
e 15 155
e 15 156
e 15 160
e 15 162
e 15 167
e 15 180
e 15 182
e 15 189
e 15 192
e 15 199
e 15 200
e 16 24
e 16 27
e 16 35
e 16 38
e 16 39
e 16 48
e 16 51
e 16 53
e 16 55
e 16 67
e 16 73
e 16 82
e 16 86
e 16 87
e 16 88
e 16 92
e 16 98
e 16 106
e 16 110
e 16 112
e 16 115
e 16 116
e 16 121
e 16 128
e 16 129
e 16 139
e 16 140
e 16 141
e 16 163
e 16 165
e 16 168
e 16 169
e 16 174
e 16 175
e 16 180
e 16 181
e 16 183
e 16 184
e 16 188
e 16 192
e 17 20
e 17 30
e 17 35
e 17 47
e 17 51
e 17 53
e 17 56
e 17 61
e 17 62
e 17 69
e 17 76
e 17 77
e 17 95
e 17 100
e 17 107
e 17 120
e 17 121
e 17 122
e 17 126
e 17 133
e 17 139
e 17 141
e 17 143
e 17 144
e 17 145
e 17 151
e 17 158
e 17 165
e 17 167
e 17 172
e 17 174
e 17 185
e 17 187
e 17 190
e 17 193
e 17 194
e 17 195
e 17 196
e 17 199
e 18 19
e 18 20
e 18 24
e 18 28
e 18 29
e 18 34
e 18 37
e 18 38
e 18 47
e 18 51
e 18 52
e 18 53
e 18 56
e 18 60
e 18 69
e 18 88
e 18 92
e 18 93
e 18 94
e 18 96
e 18 102
e 18 106
e 18 110
e 18 114
e 18 118
e 18 119
e 18 121
e 18 137
e 18 142
e 18 143
e 18 145
e 18 147
e 18 150
e 18 153
e 18 156
e 18 158
e 18 160
e 18 178
e 18 180
e 18 185
e 18 187
e 18 189
e 18 192
e 19 20
e 19 35
e 19 41
e 19 46
e 19 51
e 19 53
e 19 62
e 19 67
e 19 68
e 19 69
e 19 81
e 19 86
e 19 100
e 19 104
e 19 105
e 19 108
e 19 112
e 19 117
e 19 125
e 19 128
e 19 130
e 19 137
e 19 143
e 19 151
e 19 154
e 19 157
e 19 158
e 19 161
e 19 163
e 19 170
e 19 171
e 19 176
e 19 178
e 19 192
e 19 195
e 19 197
e 19 199
e 20 24
e 20 39
e 20 42
e 20 51
e 20 64
e 20 70
e 20 71
e 20 73
e 20 75
e 20 80
e 20 82
e 20 93
e 20 97
e 20 107
e 20 114
e 20 119
e 20 130
e 20 135
e 20 139
e 20 147
e 20 150
e 20 151
e 20 154
e 20 155
e 20 162
e 20 165
e 20 167
e 20 170
e 20 177
e 20 188
e 20 190
e 21 24
e 21 26
e 21 27
e 21 30
e 21 36
e 21 37
e 21 39
e 21 51
e 21 52
e 21 56
e 21 60
e 21 67
e 21 73
e 21 76
e 21 77
e 21 78
e 21 96
e 21 101
e 21 102
e 21 105
e 21 107
e 21 109
e 21 111
e 21 114
e 21 116
e 21 117
e 21 118
e 21 133
e 21 136
e 21 137
e 21 142
e 21 143
e 21 148
e 21 150
e 21 160
e 21 165
e 21 166
e 21 168
e 21 169
e 21 172
e 21 173
e 21 175
e 21 187
e 21 188
e 21 190
e 21 193
e 21 195
e 22 23
e 22 25
e 22 26
e 22 30
e 22 46
e 22 50
e 22 57
e 22 60
e 22 62
e 22 65
e 22 69
e 22 73
e 22 80
e 22 82
e 22 83
e 22 87
e 22 88
e 22 90
e 22 94
e 22 97
e 22 99
e 22 102
e 22 103
e 22 115
e 22 117
e 22 118
e 22 122
e 22 128
e 22 139
e 22 143
e 22 144
e 22 153
e 22 157
e 22 160
e 22 161
e 22 171
e 22 189
e 22 190
e 22 192
e 23 25
e 23 51
e 23 52
e 23 64
e 23 68
e 23 78
e 23 79
e 23 90
e 23 93
e 23 94
e 23 97
e 23 98
e 23 99
e 23 115
e 23 116
e 23 119
e 23 122
e 23 123
e 23 126
e 23 132
e 23 154
e 23 160
e 23 161
e 23 162
e 23 163
e 23 164
e 23 177
e 23 178
e 23 181
e 23 186
e 23 198
e 24 25
e 24 28
e 24 29
e 24 31
e 24 36
e 24 41
e 24 54
e 24 55
e 24 57
e 24 60
e 24 65
e 24 71
e 24 73
e 24 75
e 24 77
e 24 89
e 24 96
e 24 97
e 24 98
e 24 105
e 24 110
e 24 116
e 24 117
e 24 119
e 24 124
e 24 134
e 24 139
e 24 143
e 24 154
e 24 160
e 24 175
e 24 180
e 24 196
e 24 197
e 24 199
e 25 28
e 25 29
e 25 39
e 25 46
e 25 47
e 25 53
e 25 59
e 25 60
e 25 63
e 25 64
e 25 67
e 25 69
e 25 73
e 25 75
e 25 77
e 25 79
e 25 85
e 25 86
e 25 90
e 25 97
e 25 100
e 25 102
e 25 107
e 25 109
e 25 111
e 25 124
e 25 130
e 25 131
e 25 133
e 25 141
e 25 148
e 25 149
e 25 153
e 25 157
e 25 161
e 25 167
e 25 168
e 25 169
e 25 172
e 25 186
e 25 189
e 25 196
e 26 31
e 26 33
e 26 41
e 26 43
e 26 51
e 26 55
e 26 58
e 26 59
e 26 63
e 26 68
e 26 69
e 26 80
e 26 86
e 26 89
e 26 90
e 26 91
e 26 92
e 26 94
e 26 99
e 26 100
e 26 104
e 26 105
e 26 110
e 26 112
e 26 113
e 26 114
e 26 119
e 26 123
e 26 127
e 26 149
e 26 151
e 26 157
e 26 162
e 26 164
e 26 169
e 26 171
e 26 173
e 26 174
e 26 175
e 26 187
e 26 188
e 26 191
e 26 194
e 26 197
e 26 198
e 27 34
e 27 38
e 27 43
e 27 45
e 27 46
e 27 50
e 27 57
e 27 73
e 27 75
e 27 79
e 27 86
e 27 89
e 27 104
e 27 109
e 27 133
e 27 136
e 27 138
e 27 141
e 27 153
e 27 155
e 27 166
e 27 167
e 27 172
e 27 181
e 27 184
e 27 193
e 27 198
e 27 199
e 28 31
e 28 34
e 28 37
e 28 76
e 28 77
e 28 78
e 28 81
e 28 83
e 28 90
e 28 101
e 28 110
e 28 117
e 28 122
e 28 124
e 28 126
e 28 131
e 28 133
e 28 135
e 28 145
e 28 153
e 28 158
e 28 163
e 28 164
e 28 167
e 28 169
e 28 175
e 28 178
e 28 183
e 28 186
e 28 190
e 28 196
e 28 197
e 28 198
e 29 30
e 29 50
e 29 51
e 29 52
e 29 54
e 29 55
e 29 56
e 29 64
e 29 65
e 29 78
e 29 84
e 29 86
e 29 89
e 29 92
e 29 99
e 29 102
e 29 105
e 29 106
e 29 117
e 29 140
e 29 143
e 29 144
e 29 147
e 29 149
e 29 159
e 29 163
e 29 168
e 29 172
e 29 191
e 29 198
e 30 31
e 30 33
e 30 35
e 30 43
e 30 44
e 30 45
e 30 52
e 30 58
e 30 67
e 30 77
e 30 80
e 30 85
e 30 87
e 30 88
e 30 92
e 30 104
e 30 106
e 30 114
e 30 115
e 30 116
e 30 122
e 30 130
e 30 131
e 30 132
e 30 134
e 30 145
e 30 149
e 30 161
e 30 169
e 30 170
e 30 173
e 30 175
e 30 183
e 30 185
e 30 189
e 30 193
e 30 195
e 30 200
e 31 32
e 31 34
e 31 36
e 31 39
e 31 42
e 31 55
e 31 75
e 31 78
e 31 81
e 31 87
e 31 89
e 31 95
e 31 97
e 31 99
e 31 101
e 31 105
e 31 122
e 31 125
e 31 128
e 31 130
e 31 131
e 31 140
e 31 153
e 31 158
e 31 163
e 31 164
e 31 167
e 31 172
e 31 183
e 31 191
e 31 193
e 31 195
e 31 196
e 31 197
e 32 34
e 32 46
e 32 48
e 32 52
e 32 53
e 32 55
e 32 62
e 32 63
e 32 67
e 32 70
e 32 73
e 32 77
e 32 78
e 32 84
e 32 86
e 32 91
e 32 94
e 32 98
e 32 99
e 32 100
e 32 136
e 32 140
e 32 145
e 32 150
e 32 151
e 32 155
e 32 157
e 32 158
e 32 165
e 32 168
e 32 174
e 32 175
e 32 178
e 32 179
e 32 182
e 32 183
e 32 189
e 32 191
e 32 192
e 32 193
e 33 34
e 33 35
e 33 36
e 33 38
e 33 47
e 33 49
e 33 50
e 33 53
e 33 54
e 33 55
e 33 62
e 33 74
e 33 83
e 33 99
e 33 104
e 33 109
e 33 125
e 33 129
e 33 136
e 33 138
e 33 140
e 33 146
e 33 149
e 33 151
e 33 153
e 33 155
e 33 157
e 33 162
e 33 174
e 33 175
e 33 180
e 33 187
e 33 195
e 33 199
e 34 43
e 34 45
e 34 48
e 34 53
e 34 55
e 34 57
e 34 58
e 34 60
e 34 61
e 34 62
e 34 67
e 34 70
e 34 73
e 34 80
e 34 88
e 34 90
e 34 96
e 34 99
e 34 103
e 34 106
e 34 108
e 34 109
e 34 112
e 34 126
e 34 127
e 34 132
e 34 135
e 34 136
e 34 143
e 34 159
e 34 162
e 34 166
e 34 172
e 34 176
e 34 178
e 34 183
e 34 190
e 34 192
e 34 198
e 35 36
e 35 46
e 35 56
e 35 57
e 35 65
e 35 73
e 35 80
e 35 95
e 35 100
e 35 106
e 35 107
e 35 110
e 35 113
e 35 116
e 35 117
e 35 128
e 35 139
e 35 147
e 35 153
e 35 159
e 35 167
e 35 168
e 35 170
e 35 171
e 35 173
e 35 174
e 35 176
e 35 177
e 35 179
e 35 184
e 35 186
e 35 187
e 35 195
e 36 41
e 36 59
e 36 65
e 36 68
e 36 71
e 36 83
e 36 92
e 36 94
e 36 95
e 36 96
e 36 97
e 36 104
e 36 105
e 36 107
e 36 110
e 36 113
e 36 115
e 36 116
e 36 120
e 36 130
e 36 135
e 36 141
e 36 144
e 36 145
e 36 149
e 36 156
e 36 172
e 36 195
e 37 39
e 37 44
e 37 45
e 37 50
e 37 55
e 37 68
e 37 71
e 37 78
e 37 79
e 37 86
e 37 89
e 37 91
e 37 103
e 37 111
e 37 112
e 37 117
e 37 120
e 37 130
e 37 143
e 37 147
e 37 149
e 37 155
e 37 161
e 37 165
e 37 166
e 37 176
e 37 180
e 37 185
e 37 192
e 37 193
e 37 194
e 38 40
e 38 56
e 38 57
e 38 59
e 38 61
e 38 64
e 38 66
e 38 68
e 38 70
e 38 82
e 38 84
e 38 87
e 38 89
e 38 90
e 38 91
e 38 102
e 38 103
e 38 108
e 38 114
e 38 123
e 38 125
e 38 127
e 38 140
e 38 141
e 38 145
e 38 160
e 38 163
e 38 164
e 38 165
e 38 172
e 38 176
e 38 177
e 38 181
e 38 182
e 38 186
e 38 187
e 38 190
e 38 198
e 39 40
e 39 47
e 39 51
e 39 54
e 39 55
e 39 56
e 39 66
e 39 76
e 39 77
e 39 79
e 39 91
e 39 99
e 39 107
e 39 112
e 39 122
e 39 132
e 39 133
e 39 139
e 39 148
e 39 151
e 39 164
e 39 166
e 39 168
e 39 175
e 39 180
e 39 186
e 39 188
e 39 194
e 39 195
e 39 196
e 40 52
e 40 56
e 40 62
e 40 68
e 40 76
e 40 77
e 40 88
e 40 99
e 40 112
e 40 117
e 40 120
e 40 125
e 40 137
e 40 141
e 40 146
e 40 151
e 40 164
e 40 165
e 40 167
e 40 174
e 40 183
e 40 184
e 40 188
e 40 192
e 40 196
e 41 46
e 41 56
e 41 64
e 41 69
e 41 78
e 41 89
e 41 103
e 41 106
e 41 107
e 41 109
e 41 115
e 41 116
e 41 121
e 41 135
e 41 145
e 41 151
e 41 152
e 41 159
e 41 160
e 41 163
e 41 173
e 41 174
e 41 186
e 41 188
e 41 190
e 41 192
e 41 197
e 42 46
e 42 50
e 42 53
e 42 55
e 42 60
e 42 63
e 42 77
e 42 82
e 42 90
e 42 93
e 42 101
e 42 104
e 42 105
e 42 109
e 42 118
e 42 122
e 42 124
e 42 125
e 42 129
e 42 143
e 42 145
e 42 147
e 42 149
e 42 150
e 42 151
e 42 157
e 42 162
e 42 165
e 42 170
e 42 181
e 42 185
e 42 186
e 42 189
e 42 200
e 43 45
e 43 50
e 43 52
e 43 53
e 43 58
e 43 62
e 43 65
e 43 67
e 43 83
e 43 88
e 43 89
e 43 92
e 43 103
e 43 110
e 43 136
e 43 140
e 43 144
e 43 155
e 43 156
e 43 158
e 43 160
e 43 163
e 43 164
e 43 167
e 43 174
e 43 178
e 43 185
e 43 191
e 43 192
e 44 49
e 44 53
e 44 56
e 44 57
e 44 73
e 44 74
e 44 76
e 44 77
e 44 79
e 44 80
e 44 84
e 44 86
e 44 87
e 44 89
e 44 90
e 44 94
e 44 95
e 44 103
e 44 104
e 44 106
e 44 109
e 44 111
e 44 113
e 44 116
e 44 120
e 44 124
e 44 128
e 44 131
e 44 136
e 44 141
e 44 143
e 44 145
e 44 150
e 44 151
e 44 153
e 44 157
e 44 158
e 44 162
e 44 165
e 44 177
e 44 178
e 44 179
e 44 186
e 44 191
e 45 50
e 45 60
e 45 68
e 45 69
e 45 72
e 45 77
e 45 84
e 45 85
e 45 89
e 45 90
e 45 95
e 45 100
e 45 101
e 45 103
e 45 107
e 45 113
e 45 118
e 45 121
e 45 126
e 45 138
e 45 142
e 45 144
e 45 146
e 45 148
e 45 150
e 45 153
e 45 159
e 45 167
e 45 168
e 45 178
e 45 183
e 45 186
e 45 187
e 45 193
e 45 196
e 45 199
e 46 48
e 46 52
e 46 54
e 46 55
e 46 56
e 46 58
e 46 59
e 46 63
e 46 67
e 46 68
e 46 72
e 46 78
e 46 89
e 46 91
e 46 98
e 46 108
e 46 114
e 46 115
e 46 119
e 46 121
e 46 133
e 46 138
e 46 145
e 46 150
e 46 151
e 46 153
e 46 154
e 46 158
e 46 165
e 46 175
e 46 181
e 46 187
e 46 190
e 46 198
e 47 53
e 47 56
e 47 60
e 47 61
e 47 66
e 47 73
e 47 75
e 47 79
e 47 84
e 47 91
e 47 94
e 47 96
e 47 108
e 47 113
e 47 116
e 47 119
e 47 123
e 47 127
e 47 132
e 47 150
e 47 153
e 47 161
e 47 169
e 47 171
e 47 176
e 47 191
e 47 192
e 47 194
e 47 195
e 47 196
e 47 197
e 47 198
e 48 53
e 48 58
e 48 63
e 48 66
e 48 74
e 48 75
e 48 83
e 48 85
e 48 86
e 48 88
e 48 98
e 48 99
e 48 114
e 48 123
e 48 126
e 48 133
e 48 149
e 48 150
e 48 152
e 48 160
e 48 162
e 48 165
e 48 170
e 48 173
e 48 174
e 48 175
e 48 183
e 48 185
e 48 194
e 48 195
e 48 200
e 49 51
e 49 57
e 49 60
e 49 61
e 49 63
e 49 72
e 49 73
e 49 80
e 49 81
e 49 82
e 49 103
e 49 113
e 49 122
e 49 126
e 49 129
e 49 132
e 49 139
e 49 152
e 49 158
e 49 159
e 49 162
e 49 163
e 49 164
e 49 168
e 49 169
e 49 177
e 49 178
e 49 182
e 49 184
e 49 188
e 49 192
e 50 52
e 50 53
e 50 60
e 50 76
e 50 91
e 50 95
e 50 98
e 50 102
e 50 106
e 50 113
e 50 118
e 50 121
e 50 127
e 50 128
e 50 139
e 50 140
e 50 147
e 50 153
e 50 154
e 50 156
e 50 164
e 50 167
e 50 178
e 50 185
e 50 193
e 51 56
e 51 61
e 51 68
e 51 71
e 51 72
e 51 79
e 51 84
e 51 85
e 51 88
e 51 89
e 51 91
e 51 97
e 51 99
e 51 104
e 51 123
e 51 126
e 51 127
e 51 136
e 51 140
e 51 143
e 51 145
e 51 148
e 51 159
e 51 160
e 51 162
e 51 164
e 51 173
e 51 175
e 51 178
e 51 190
e 51 200
e 52 54
e 52 67
e 52 73
e 52 78
e 52 80
e 52 84
e 52 93
e 52 96
e 52 102
e 52 105
e 52 106
e 52 110
e 52 111
e 52 113
e 52 114
e 52 125
e 52 126
e 52 130
e 52 131
e 52 132
e 52 137
e 52 138
e 52 140
e 52 144
e 52 148
e 52 156
e 52 157
e 52 159
e 52 160
e 52 162
e 52 163
e 52 169
e 52 191
e 52 194
e 53 54
e 53 58
e 53 60
e 53 72
e 53 74
e 53 75
e 53 78
e 53 80
e 53 96
e 53 98
e 53 102
e 53 103
e 53 106
e 53 109
e 53 111
e 53 114
e 53 128
e 53 129
e 53 130
e 53 136
e 53 137
e 53 140
e 53 149
e 53 150
e 53 158
e 53 164
e 53 168
e 53 170
e 53 175
e 53 176
e 53 193
e 53 197
e 54 59
e 54 64
e 54 65
e 54 66
e 54 70
e 54 72
e 54 82
e 54 84
e 54 88
e 54 91
e 54 93
e 54 100
e 54 105
e 54 106
e 54 113
e 54 120
e 54 123
e 54 126
e 54 135
e 54 139
e 54 143
e 54 146
e 54 147
e 54 148
e 54 152
e 54 156
e 54 158
e 54 181
e 54 191
e 54 192
e 55 59
e 55 64
e 55 66
e 55 72
e 55 74
e 55 75
e 55 77
e 55 86
e 55 91
e 55 101
e 55 110
e 55 114
e 55 115
e 55 117
e 55 121
e 55 126
e 55 134
e 55 138
e 55 140
e 55 143
e 55 155
e 55 157
e 55 159
e 55 162
e 55 164
e 55 171
e 55 178
e 55 181
e 55 185
e 55 188
e 56 64
e 56 69
e 56 75
e 56 85
e 56 88
e 56 91
e 56 96
e 56 106
e 56 110
e 56 111
e 56 113
e 56 115
e 56 118
e 56 122
e 56 124
e 56 128
e 56 131
e 56 136
e 56 143
e 56 151
e 56 152
e 56 155
e 56 162
e 56 170
e 56 171
e 56 173
e 56 174
e 56 177
e 56 186
e 56 191
e 57 67
e 57 68
e 57 76
e 57 79
e 57 88
e 57 90
e 57 94
e 57 107
e 57 120
e 57 122
e 57 136
e 57 144
e 57 160
e 57 161
e 57 165
e 57 166
e 57 175
e 57 180
e 57 185
e 57 189
e 57 191
e 57 200
e 58 64
e 58 74
e 58 79
e 58 82
e 58 92
e 58 96
e 58 109
e 58 114
e 58 115
e 58 119
e 58 120
e 58 123
e 58 127
e 58 130
e 58 131
e 58 137
e 58 138
e 58 140
e 58 141
e 58 153
e 58 163
e 58 164
e 58 166
e 58 171
e 58 176
e 58 178
e 58 181
e 58 182
e 58 192
e 58 197
e 58 200
e 59 76
e 59 87
e 59 89
e 59 92
e 59 94
e 59 97
e 59 99
e 59 105
e 59 107
e 59 108
e 59 114
e 59 122
e 59 127
e 59 132
e 59 133
e 59 137
e 59 139
e 59 140
e 59 144
e 59 145
e 59 162
e 59 166
e 59 176
e 59 178
e 59 183
e 59 185
e 59 186
e 59 187
e 59 189
e 59 193
e 59 200
e 60 62
e 60 63
e 60 64
e 60 77
e 60 79
e 60 81
e 60 102
e 60 113
e 60 117
e 60 122
e 60 124
e 60 130
e 60 132
e 60 134
e 60 147
e 60 148
e 60 153
e 60 163
e 60 169
e 60 171
e 60 179
e 60 181
e 60 193
e 60 197
e 61 62
e 61 65
e 61 66
e 61 80
e 61 81
e 61 83
e 61 84
e 61 86
e 61 88
e 61 91
e 61 96
e 61 107
e 61 110
e 61 112
e 61 119
e 61 123
e 61 135
e 61 137
e 61 140
e 61 146
e 61 147
e 61 150
e 61 160
e 61 162
e 61 165
e 61 166
e 61 168
e 61 174
e 61 193
e 62 68
e 62 71
e 62 74
e 62 75
e 62 76
e 62 91
e 62 92
e 62 93
e 62 97
e 62 99
e 62 100
e 62 102
e 62 105
e 62 106
e 62 117
e 62 123
e 62 124
e 62 126
e 62 138
e 62 142
e 62 149
e 62 155
e 62 158
e 62 169
e 62 191
e 62 193
e 62 195
e 62 198
e 63 72
e 63 73
e 63 75
e 63 79
e 63 88
e 63 89
e 63 96
e 63 105
e 63 108
e 63 109
e 63 113
e 63 116
e 63 131
e 63 133
e 63 136
e 63 150
e 63 152
e 63 156
e 63 159
e 63 163
e 63 166
e 63 172
e 63 173
e 63 175
e 63 178
e 63 179
e 63 181
e 63 184
e 63 186
e 63 190
e 64 69
e 64 76
e 64 83
e 64 100
e 64 117
e 64 124
e 64 125
e 64 126
e 64 127
e 64 135
e 64 136
e 64 138
e 64 140
e 64 150
e 64 152
e 64 154
e 64 156
e 64 158
e 64 163
e 64 164
e 64 165
e 64 171
e 64 174
e 64 182
e 64 186
e 64 188
e 64 194
e 65 67
e 65 72
e 65 78
e 65 84
e 65 91
e 65 95
e 65 101
e 65 112
e 65 115
e 65 116
e 65 124
e 65 130
e 65 142
e 65 145
e 65 148
e 65 149
e 65 165
e 65 169
e 65 175
e 65 178
e 65 185
e 65 187
e 65 188
e 65 192
e 65 195
e 65 198
e 66 68
e 66 79
e 66 84
e 66 98
e 66 114
e 66 115
e 66 117
e 66 119
e 66 131
e 66 134
e 66 136
e 66 137
e 66 138
e 66 143
e 66 147
e 66 148
e 66 150
e 66 152
e 66 153
e 66 158
e 66 159
e 66 176
e 66 182
e 66 189
e 66 196
e 66 198
e 66 199
e 67 78
e 67 80
e 67 87
e 67 100
e 67 103
e 67 113
e 67 115
e 67 116
e 67 117
e 67 129
e 67 132
e 67 135
e 67 144
e 67 146
e 67 147
e 67 158
e 67 159
e 67 166
e 67 171
e 67 176
e 67 179
e 67 181
e 67 182
e 67 186
e 67 189
e 67 190
e 67 191
e 67 198
e 68 69
e 68 70
e 68 77
e 68 78
e 68 86
e 68 87
e 68 92
e 68 94
e 68 101
e 68 119
e 68 123
e 68 125
e 68 126
e 68 128
e 68 135
e 68 146
e 68 148
e 68 152
e 68 157
e 68 172
e 68 176
e 68 177
e 68 181
e 68 188
e 69 71
e 69 75
e 69 81
e 69 92
e 69 95
e 69 97
e 69 99
e 69 101
e 69 102
e 69 106
e 69 108
e 69 110
e 69 114
e 69 116
e 69 122
e 69 123
e 69 129
e 69 142
e 69 144
e 69 145
e 69 158
e 69 160
e 69 174
e 69 177
e 69 191
e 69 193
e 69 197
e 70 76
e 70 78
e 70 88
e 70 89
e 70 99
e 70 103
e 70 107
e 70 108
e 70 109
e 70 111
e 70 113
e 70 117
e 70 123
e 70 126
e 70 128
e 70 130
e 70 131
e 70 133
e 70 140
e 70 146
e 70 147
e 70 150
e 70 155
e 70 159
e 70 162
e 70 163
e 70 164
e 70 173
e 70 184
e 70 185
e 70 189
e 70 190
e 70 193
e 70 198
e 71 81
e 71 84
e 71 90
e 71 101
e 71 103
e 71 106
e 71 111
e 71 112
e 71 125
e 71 128
e 71 134
e 71 151
e 71 157
e 71 166
e 71 173
e 71 180
e 71 187
e 71 189
e 71 190
e 71 192
e 71 195
e 71 198
e 71 199
e 72 75
e 72 87
e 72 94
e 72 102
e 72 103
e 72 108
e 72 109
e 72 110
e 72 112
e 72 120
e 72 128
e 72 142
e 72 146
e 72 153
e 72 156
e 72 159
e 72 165
e 72 168
e 72 184
e 72 189
e 72 192
e 72 197
e 72 199
e 73 78
e 73 93
e 73 95
e 73 100
e 73 103
e 73 111
e 73 114
e 73 119
e 73 122
e 73 125
e 73 126
e 73 134
e 73 137
e 73 141
e 73 143
e 73 144
e 73 153
e 73 165
e 73 175
e 73 187
e 74 83
e 74 88
e 74 105
e 74 111
e 74 112
e 74 120
e 74 124
e 74 132
e 74 138
e 74 143
e 74 145
e 74 156
e 74 162
e 74 168
e 74 172
e 74 179
e 74 185
e 74 188
e 74 191
e 74 196
e 74 198
e 74 200
e 75 81
e 75 82
e 75 84
e 75 85
e 75 88
e 75 96
e 75 104
e 75 111
e 75 116
e 75 119
e 75 120
e 75 129
e 75 137
e 75 141
e 75 144
e 75 145
e 75 148
e 75 151
e 75 152
e 75 154
e 75 165
e 75 168
e 75 179
e 75 184
e 75 186
e 75 187
e 75 191
e 75 195
e 75 196
e 76 80
e 76 88
e 76 93
e 76 106
e 76 109
e 76 117
e 76 119
e 76 123
e 76 130
e 76 131
e 76 136
e 76 140
e 76 143
e 76 145
e 76 149
e 76 150
e 76 151
e 76 159
e 76 162
e 76 163
e 76 170
e 76 171
e 76 181
e 76 182
e 76 196
e 77 81
e 77 83
e 77 84
e 77 88
e 77 95
e 77 98
e 77 105
e 77 109
e 77 112
e 77 113
e 77 121
e 77 124
e 77 130
e 77 132
e 77 147
e 77 168
e 77 188
e 78 86
e 78 91
e 78 96
e 78 100
e 78 103
e 78 116
e 78 118
e 78 125
e 78 130
e 78 148
e 78 150
e 78 153
e 78 156
e 78 158
e 78 162
e 78 164
e 78 167
e 78 170
e 78 171
e 78 182
e 78 186
e 78 195
e 78 197
e 79 85
e 79 88
e 79 94
e 79 103
e 79 105
e 79 109
e 79 110
e 79 115
e 79 118
e 79 121
e 79 123
e 79 132
e 79 133
e 79 134
e 79 138
e 79 140
e 79 149
e 79 150
e 79 151
e 79 172
e 79 178
e 79 181
e 79 183
e 79 190
e 79 193
e 80 84
e 80 85
e 80 86
e 80 88
e 80 92
e 80 100
e 80 101
e 80 103
e 80 105
e 80 115
e 80 117
e 80 138
e 80 140
e 80 142
e 80 144
e 80 152
e 80 159
e 80 166
e 80 171
e 80 172
e 80 177
e 80 183
e 80 184
e 80 188
e 80 189
e 80 198
e 81 86
e 81 89
e 81 99
e 81 106
e 81 109
e 81 138
e 81 145
e 81 147
e 81 148
e 81 149
e 81 153
e 81 157
e 81 167
e 81 171
e 81 175
e 81 180
e 81 182
e 81 194
e 81 200
e 82 83
e 82 87
e 82 88
e 82 91
e 82 92
e 82 102
e 82 104
e 82 108
e 82 110
e 82 112
e 82 117
e 82 132
e 82 136
e 82 143
e 82 145
e 82 153
e 82 154
e 82 160
e 82 163
e 82 164
e 82 178
e 82 181
e 82 182
e 82 188
e 83 88
e 83 101
e 83 102
e 83 116
e 83 118
e 83 131
e 83 136
e 83 142
e 83 151
e 83 158
e 83 170
e 83 172
e 83 195
e 83 200
e 84 91
e 84 92
e 84 95
e 84 98
e 84 104
e 84 117
e 84 119
e 84 141
e 84 142
e 84 146
e 84 158
e 84 164
e 84 165
e 84 167
e 84 171
e 84 173
e 84 176
e 84 179
e 84 183
e 84 184
e 84 188
e 85 90
e 85 91
e 85 92
e 85 93
e 85 95
e 85 99
e 85 101
e 85 102
e 85 106
e 85 108
e 85 116
e 85 128
e 85 132
e 85 136
e 85 143
e 85 145
e 85 146
e 85 149
e 85 152
e 85 183
e 85 192
e 85 196
e 85 198
e 86 87
e 86 105
e 86 117
e 86 118
e 86 119
e 86 122
e 86 129
e 86 133
e 86 134
e 86 135
e 86 138
e 86 154
e 86 155
e 86 157
e 86 159
e 86 161
e 86 164
e 86 169
e 86 170
e 86 171
e 86 173
e 86 186
e 87 92
e 87 100
e 87 101
e 87 102
e 87 104
e 87 111
e 87 112
e 87 114
e 87 115
e 87 119
e 87 123
e 87 125
e 87 131
e 87 132
e 87 133
e 87 135
e 87 136
e 87 146
e 87 148
e 87 151
e 87 157
e 87 159
e 87 164
e 87 165
e 87 168
e 87 178
e 87 179
e 87 185
e 87 186
e 87 190
e 87 191
e 87 194
e 87 196
e 87 197
e 88 90
e 88 91
e 88 94
e 88 102
e 88 111
e 88 115
e 88 126
e 88 128
e 88 130
e 88 132
e 88 145
e 88 150
e 88 151
e 88 154
e 88 156
e 88 183
e 88 185
e 88 198
e 88 200
e 89 90
e 89 95
e 89 98
e 89 104
e 89 106
e 89 108
e 89 112
e 89 132
e 89 136
e 89 142
e 89 150
e 89 153
e 89 165
e 89 168
e 89 170
e 89 172
e 89 175
e 89 181
e 89 188
e 89 190
e 89 200
e 90 98
e 90 99
e 90 100
e 90 102
e 90 105
e 90 112
e 90 116
e 90 119
e 90 120
e 90 122
e 90 125
e 90 126
e 90 129
e 90 140
e 90 150
e 90 151
e 90 161
e 90 175
e 90 176
e 90 192
e 90 193
e 90 194
e 90 197
e 91 93
e 91 98
e 91 104
e 91 105
e 91 112
e 91 119
e 91 120
e 91 130
e 91 138
e 91 146
e 91 148
e 91 153
e 91 154
e 91 155
e 91 162
e 91 168
e 91 172
e 91 183
e 91 185
e 91 191
e 91 194
e 91 197
e 92 95
e 92 102
e 92 104
e 92 113
e 92 115
e 92 116
e 92 117
e 92 119
e 92 123
e 92 124
e 92 128
e 92 137
e 92 154
e 92 161
e 92 164
e 92 180
e 92 185
e 92 191
e 92 196
e 93 95
e 93 97
e 93 108
e 93 117
e 93 118
e 93 119
e 93 127
e 93 128
e 93 130
e 93 139
e 93 148
e 93 150
e 93 157
e 93 170
e 93 174
e 93 184
e 93 185
e 93 193
e 94 98
e 94 99
e 94 102
e 94 106
e 94 110
e 94 111
e 94 112
e 94 117
e 94 118
e 94 121
e 94 129
e 94 137
e 94 138
e 94 144
e 94 147
e 94 149
e 94 152
e 94 155
e 94 156
e 94 157
e 94 161
e 94 174
e 94 175
e 94 177
e 94 178
e 94 180
e 94 186
e 94 191
e 94 192
e 94 195
e 94 196
e 95 96
e 95 108
e 95 111
e 95 117
e 95 118
e 95 125
e 95 126
e 95 127
e 95 137
e 95 139
e 95 143
e 95 147
e 95 148
e 95 149
e 95 150
e 95 153
e 95 154
e 95 155
e 95 161
e 95 166
e 95 168
e 95 173
e 95 176
e 95 184
e 95 199
e 96 106
e 96 107
e 96 114
e 96 117
e 96 120
e 96 124
e 96 134
e 96 139
e 96 140
e 96 147
e 96 149
e 96 153
e 96 164
e 96 169
e 96 171
e 96 172
e 96 173
e 96 176
e 96 177
e 96 187
e 96 190
e 96 196
e 96 198
e 97 99
e 97 100
e 97 102
e 97 106
e 97 120
e 97 124
e 97 127
e 97 130
e 97 132
e 97 134
e 97 143
e 97 149
e 97 156
e 97 157
e 97 162
e 97 170
e 97 173
e 97 180
e 97 184
e 97 186
e 97 200
e 98 102
e 98 103
e 98 107
e 98 110
e 98 120
e 98 121
e 98 130
e 98 134
e 98 138
e 98 139
e 98 148
e 98 149
e 98 158
e 98 159
e 98 162
e 98 167
e 98 174
e 98 175
e 98 176
e 98 179
e 98 187
e 98 192
e 99 105
e 99 106
e 99 108
e 99 111
e 99 122
e 99 124
e 99 125
e 99 129
e 99 132
e 99 135
e 99 136
e 99 138
e 99 148
e 99 153
e 99 154
e 99 155
e 99 156
e 99 161
e 99 164
e 99 175
e 99 187
e 99 192
e 100 111
e 100 114
e 100 119
e 100 120
e 100 121
e 100 123
e 100 126
e 100 128
e 100 132
e 100 146
e 100 147
e 100 150
e 100 160
e 100 161
e 100 164
e 100 168
e 100 176
e 100 180
e 100 181
e 100 184
e 100 185
e 100 188
e 100 192
e 100 200
e 101 107
e 101 111
e 101 114
e 101 123
e 101 140
e 101 150
e 101 152
e 101 155
e 101 158
e 101 160
e 101 166
e 101 171
e 101 172
e 101 177
e 101 192
e 102 103
e 102 106
e 102 113
e 102 118
e 102 123
e 102 130
e 102 131
e 102 140
e 102 143
e 102 145
e 102 152
e 102 155
e 102 159
e 102 165
e 102 166
e 102 168
e 102 169
e 102 172
e 102 175
e 102 179
e 102 188
e 102 190
e 102 195
e 102 197
e 103 109
e 103 112
e 103 124
e 103 128
e 103 129
e 103 136
e 103 138
e 103 139
e 103 141
e 103 154
e 103 157
e 103 158
e 103 161
e 103 163
e 103 172
e 103 176
e 103 191
e 103 194
e 103 200
e 104 111
e 104 117
e 104 123
e 104 126
e 104 135
e 104 137
e 104 141
e 104 146
e 104 151
e 104 154
e 104 157
e 104 177
e 104 178
e 104 179
e 104 180
e 104 181
e 104 185
e 104 187
e 104 194
e 104 195
e 105 111
e 105 113
e 105 115
e 105 116
e 105 120
e 105 121
e 105 125
e 105 129
e 105 130
e 105 133
e 105 140
e 105 143
e 105 151
e 105 153
e 105 164
e 105 179
e 105 182
e 105 190
e 105 192
e 105 195
e 105 197
e 106 109
e 106 116
e 106 119
e 106 123
e 106 130
e 106 138
e 106 140
e 106 141
e 106 147
e 106 152
e 106 154
e 106 169
e 106 171
e 106 172
e 106 176
e 106 181
e 106 184
e 106 185
e 106 186
e 106 194
e 106 195
e 106 198
e 107 120
e 107 129
e 107 140
e 107 145
e 107 149
e 107 151
e 107 169
e 107 179
e 107 185
e 107 186
e 107 190
e 108 111
e 108 112
e 108 114
e 108 115
e 108 117
e 108 121
e 108 124
e 108 128
e 108 132
e 108 134
e 108 141
e 108 142
e 108 143
e 108 146
e 108 151
e 108 164
e 108 169
e 108 179
e 108 183
e 109 113
e 109 116
e 109 119
e 109 121
e 109 123
e 109 125
e 109 128
e 109 131
e 109 133
e 109 134
e 109 139
e 109 142
e 109 144
e 109 145
e 109 149
e 109 158
e 109 164
e 109 166
e 109 171
e 109 176
e 109 183
e 109 184
e 109 186
e 109 189
e 109 193
e 109 194
e 109 196
e 109 198
e 110 116
e 110 117
e 110 122
e 110 123
e 110 125
e 110 126
e 110 128
e 110 136
e 110 140
e 110 143
e 110 144
e 110 149
e 110 151
e 110 153
e 110 163
e 110 164
e 110 165
e 110 166
e 110 174
e 110 176
e 110 179
e 110 181
e 110 185
e 110 190
e 110 191
e 110 196
e 110 199
e 111 114
e 111 115
e 111 116
e 111 122
e 111 129
e 111 136
e 111 159
e 111 161
e 111 164
e 111 165
e 111 166
e 111 169
e 111 172
e 111 173
e 111 187
e 111 188
e 111 193
e 112 119
e 112 123
e 112 124
e 112 127
e 112 128
e 112 131
e 112 132
e 112 140
e 112 141
e 112 144
e 112 147
e 112 149
e 112 153
e 112 158
e 112 166
e 112 176
e 112 183
e 113 129
e 113 132
e 113 141
e 113 146
e 113 147
e 113 160
e 113 161
e 113 162
e 113 171
e 113 173
e 113 174
e 113 181
e 113 183
e 113 188
e 113 192
e 113 198
e 114 115
e 114 117
e 114 122
e 114 131
e 114 144
e 114 155
e 114 159
e 114 160
e 114 162
e 114 164
e 114 166
e 114 168
e 114 170
e 114 175
e 114 177
e 114 180
e 114 188
e 114 189
e 114 198
e 115 116
e 115 121
e 115 126
e 115 131
e 115 139
e 115 148
e 115 153
e 115 171
e 115 175
e 115 178
e 115 195
e 116 118
e 116 127
e 116 128
e 116 130
e 116 133
e 116 136
e 116 138
e 116 141
e 116 147
e 116 154
e 116 164
e 116 176
e 116 178
e 116 184
e 116 186
e 116 188
e 116 190
e 116 193
e 116 194
e 116 195
e 116 197
e 117 123
e 117 124
e 117 131
e 117 132
e 117 135
e 117 141
e 117 144
e 117 147
e 117 150
e 117 151
e 117 159
e 117 167
e 117 168
e 117 171
e 117 172
e 117 174
e 117 179
e 117 188
e 117 189
e 117 191
e 117 193
e 118 119
e 118 129
e 118 133
e 118 136
e 118 142
e 118 148
e 118 152
e 118 153
e 118 154
e 118 159
e 118 162
e 118 165
e 118 169
e 118 170
e 118 172
e 118 175
e 118 182
e 118 187
e 118 198
e 119 122
e 119 130
e 119 139
e 119 143
e 119 144
e 119 148
e 119 153
e 119 155
e 119 159
e 119 160
e 119 163
e 119 165
e 119 167
e 119 174
e 119 180
e 119 182
e 119 183
e 119 186
e 119 188
e 119 195
e 120 122
e 120 124
e 120 125
e 120 126
e 120 133
e 120 138
e 120 140
e 120 143
e 120 151
e 120 154
e 120 165
e 120 170
e 120 172
e 120 176
e 120 180
e 120 196
e 121 128
e 121 132
e 121 133
e 121 134
e 121 135
e 121 136
e 121 141
e 121 151
e 121 166
e 121 167
e 121 169
e 121 170
e 121 184
e 121 185
e 121 186
e 121 188
e 121 189
e 121 190
e 121 195
e 122 129
e 122 137
e 122 145
e 122 148
e 122 153
e 122 154
e 122 156
e 122 161
e 122 164
e 122 170
e 122 172
e 122 177
e 122 179
e 122 189
e 122 190
e 122 195
e 122 196
e 122 197
e 123 125
e 123 127
e 123 130
e 123 131
e 123 135
e 123 142
e 123 144
e 123 147
e 123 152
e 123 154
e 123 164
e 123 165
e 123 166
e 123 167
e 123 170
e 123 175
e 123 178
e 123 181
e 123 185
e 123 187
e 123 192
e 123 193
e 123 195
e 123 199
e 124 132
e 124 135
e 124 140
e 124 143
e 124 144
e 124 148
e 124 150
e 124 153
e 124 160
e 124 162
e 124 166
e 124 179
e 124 180
e 124 181
e 124 183
e 124 193
e 124 195
e 124 200
e 125 129
e 125 130
e 125 131
e 125 139
e 125 158
e 125 171
e 125 174
e 125 177
e 125 179
e 125 185
e 125 186
e 125 187
e 125 190
e 125 192
e 125 199
e 125 200
e 126 130
e 126 135
e 126 138
e 126 142
e 126 147
e 126 152
e 126 153
e 126 157
e 126 159
e 126 173
e 126 177
e 126 178
e 126 183
e 126 194
e 126 196
e 126 198
e 127 128
e 127 132
e 127 133
e 127 137
e 127 138
e 127 139
e 127 145
e 127 150
e 127 153
e 127 157
e 127 161
e 127 163
e 127 169
e 127 170
e 127 180
e 127 184
e 127 191
e 127 193
e 128 129
e 128 133
e 128 136
e 128 139
e 128 144
e 128 146
e 128 151
e 128 153
e 128 157
e 128 165
e 128 169
e 128 189
e 128 194
e 129 130
e 129 131
e 129 138
e 129 142
e 129 146
e 129 151
e 129 153
e 129 156
e 129 157
e 129 160
e 129 162
e 129 167
e 129 172
e 129 173
e 129 180
e 129 185
e 129 193
e 129 194
e 130 133
e 130 137
e 130 149
e 130 150
e 130 155
e 130 159
e 130 161
e 130 162
e 130 165
e 130 169
e 130 172
e 130 175
e 130 179
e 130 189
e 130 191
e 130 198
e 131 132
e 131 133
e 131 135
e 131 137
e 131 138
e 131 142
e 131 146
e 131 149
e 131 162
e 131 165
e 131 173
e 131 181
e 131 184
e 131 193
e 131 198
e 132 137
e 132 143
e 132 150
e 132 152
e 132 157
e 132 160
e 132 163
e 132 169
e 132 172
e 132 177
e 132 183
e 132 185
e 132 186
e 132 197
e 133 140
e 133 149
e 133 150
e 133 153
e 133 158
e 133 167
e 133 172
e 133 173
e 133 175
e 133 176
e 133 179
e 133 180
e 133 186
e 133 188
e 133 190
e 133 191
e 133 197
e 133 200
e 134 135
e 134 136
e 134 143
e 134 145
e 134 148
e 134 151
e 134 159
e 134 165
e 134 166
e 134 188
e 134 190
e 134 194
e 135 145
e 135 150
e 135 156
e 135 161
e 135 165
e 135 171
e 135 176
e 135 179
e 135 187
e 135 190
e 135 200
e 136 138
e 136 141
e 136 148
e 136 149
e 136 154
e 136 157
e 136 158
e 136 163
e 136 167
e 136 175
e 136 176
e 136 178
e 136 183
e 136 185
e 136 188
e 136 195
e 136 200
e 137 143
e 137 144
e 137 149
e 137 153
e 137 159
e 137 161
e 137 163
e 137 171
e 137 186
e 137 187
e 137 188
e 137 193
e 138 140
e 138 141
e 138 155
e 138 156
e 138 157
e 138 163
e 138 164
e 138 167
e 138 169
e 138 179
e 138 184
e 138 188
e 138 193
e 138 194
e 139 147
e 139 148
e 139 149
e 139 151
e 139 153
e 139 164
e 139 175
e 139 183
e 139 184
e 139 188
e 139 189
e 139 194
e 140 142
e 140 144
e 140 145
e 140 149
e 140 156
e 140 161
e 140 172
e 140 176
e 140 177
e 140 187
e 140 194
e 140 198
e 141 150
e 141 152
e 141 153
e 141 155
e 141 161
e 141 166
e 141 176
e 141 181
e 141 187
e 141 189
e 141 192
e 141 197
e 142 148
e 142 151
e 142 154
e 142 160
e 142 161
e 142 168
e 142 173
e 142 177
e 142 178
e 142 179
e 142 197
e 142 200
e 143 150
e 143 151
e 143 152
e 143 159
e 143 160
e 143 170
e 143 171
e 143 174
e 143 177
e 143 178
e 143 179
e 143 180
e 143 186
e 143 188
e 143 189
e 143 194
e 143 196
e 143 197
e 143 199
e 143 200
e 144 147
e 144 151
e 144 153
e 144 157
e 144 158
e 144 161
e 144 167
e 144 169
e 144 174
e 144 175
e 144 182
e 144 183
e 144 190
e 144 198
e 145 149
e 145 171
e 145 178
e 145 179
e 145 180
e 145 187
e 145 190
e 145 191
e 145 197
e 146 147
e 146 149
e 146 150
e 146 151
e 146 152
e 146 154
e 146 160
e 146 166
e 146 170
e 146 175
e 146 177
e 146 184
e 146 185
e 146 186
e 146 187
e 146 188
e 146 190
e 146 199
e 147 148
e 147 152
e 147 160
e 147 161
e 147 164
e 147 166
e 147 170
e 147 173
e 147 176
e 147 191
e 147 192
e 147 194
e 148 155
e 148 157
e 148 159
e 148 164
e 148 167
e 148 169
e 148 173
e 148 184
e 148 185
e 148 186
e 148 187
e 148 190
e 148 197
e 148 198
e 149 154
e 149 155
e 149 161
e 149 164
e 149 165
e 149 167
e 149 178
e 149 183
e 149 190
e 149 196
e 150 151
e 150 152
e 150 153
e 150 154
e 150 157
e 150 160
e 150 163
e 150 171
e 150 178
e 150 181
e 150 192
e 150 197
e 150 199
e 151 157
e 151 158
e 151 162
e 151 164
e 151 167
e 151 177
e 151 181
e 151 189
e 151 190
e 151 194
e 151 196
e 152 154
e 152 156
e 152 160
e 152 163
e 152 171
e 152 174
e 152 178
e 152 182
e 152 188
e 152 195
e 152 198
e 153 160
e 153 161
e 153 169
e 153 180
e 153 183
e 153 197
e 153 198
e 153 199
e 153 200
e 154 155
e 154 156
e 154 158
e 154 167
e 154 171
e 154 174
e 154 178
e 154 182
e 154 183
e 154 187
e 154 189
e 154 193
e 155 159
e 155 165
e 155 171
e 155 172
e 155 173
e 155 175
e 155 177
e 155 180
e 155 189
e 155 195
e 156 158
e 156 160
e 156 162
e 156 163
e 156 164
e 156 169
e 156 173
e 156 187
e 156 189
e 156 193
e 157 165
e 157 194
e 157 197
e 158 163
e 158 164
e 158 184
e 158 187
e 158 190
e 158 194
e 158 200
e 159 166
e 159 171
e 159 187
e 159 192
e 159 194
e 159 197
e 160 176
e 160 187
e 160 197
e 160 199
e 160 200
e 161 162
e 161 166
e 161 173
e 161 175
e 161 176
e 161 177
e 161 183
e 161 186
e 161 189
e 161 196
e 161 197
e 162 164
e 162 165
e 162 170
e 162 184
e 162 185
e 162 195
e 163 167
e 163 170
e 163 171
e 163 187
e 163 189
e 163 192
e 163 193
e 164 167
e 164 168
e 164 169
e 164 171
e 164 180
e 164 188
e 164 191
e 164 194
e 164 197
e 165 170
e 165 174
e 165 176
e 165 179
e 165 182
e 165 183
e 165 185
e 165 186
e 165 188
e 165 192
e 165 193
e 165 194
e 165 197
e 166 167
e 166 175
e 166 187
e 166 188
e 166 189
e 166 191
e 166 192
e 166 194
e 167 169
e 167 172
e 167 174
e 167 176
e 167 177
e 167 189
e 167 198
e 168 177
e 168 183
e 168 186
e 168 190
e 168 195
e 168 197
e 168 199
e 168 200
e 169 174
e 169 176
e 169 177
e 169 178
e 169 180
e 169 183
e 169 187
e 169 189
e 169 197
e 170 183
e 170 184
e 170 185
e 170 188
e 170 189
e 170 198
e 170 199
e 171 176
e 171 181
e 171 183
e 171 188
e 171 193
e 171 197
e 171 199
e 172 176
e 172 179
e 172 181
e 172 195
e 172 196
e 173 176
e 173 192
e 173 193
e 173 196
e 173 197
e 174 176
e 174 180
e 174 182
e 174 183
e 174 192
e 174 199
e 175 178
e 175 186
e 175 188
e 175 191
e 175 198
e 176 177
e 176 180
e 176 184
e 176 187
e 176 193
e 176 199
e 177 180
e 177 183
e 177 186
e 177 191
e 178 184
e 178 186
e 178 189
e 179 193
e 180 189
e 180 199
e 181 191
e 182 184
e 182 188
e 182 191
e 182 199
e 183 193
e 183 195
e 184 186
e 184 192
e 184 195
e 185 189
e 185 193
e 185 197
e 185 198
e 186 189
e 187 189
e 187 192
e 187 194
e 187 195
e 188 198
e 189 190
e 189 193
e 189 194
e 189 199
e 191 196
e 191 197
e 193 200
e 194 196
e 194 197
e 194 200
e 195 199
e 197 199
e 197 200
e 199 200
